%nprocshared=8
%mem=1600MB
#p opt hf/6-31G

 Mol09.out

0  1
O          21.91830        -8.94590        -2.48390
C          20.80310        -8.70740        -1.97810
C          20.02970        -7.46030        -2.44730
N          20.12670        -6.36050        -1.52600
N          19.08100        -5.78950        -0.85690
N          19.45510        -4.83980        -0.11980
C          20.87150        -4.68590        -0.22490
C          21.79180        -3.81170         0.35910
C          23.12780        -3.96280         0.01180
C          23.55560        -4.95630        -0.88890
C          22.66990        -5.84200        -1.48790
C          21.31870        -5.70030        -1.15640
N          20.27300        -9.51370        -0.98800
C          21.01910       -10.66780        -0.51330
C          20.84410       -11.91090        -1.31220
C          20.13110       -13.06320        -0.84370
C          20.16070       -14.08260        -1.76810
S          21.01290       -13.64580        -3.13980
C          21.37090       -12.12080        -2.57170
C          18.92690        -9.38520        -0.54340
C          18.66580        -8.99430         0.78660
C          17.35290        -8.89520         1.23970
C          16.28670        -9.18450         0.38980
C          16.53620        -9.57200        -0.92570
C          17.84240        -9.67640        -1.39670
H          20.49860        -7.14520        -3.42570
H          18.94720        -7.72110        -2.62260
H          21.46240        -3.03790         1.06680
H          23.87890        -3.29000         0.45330
H          24.62910        -5.03430        -1.12270
H          23.00590        -6.63110        -2.17760
H          22.11450       -10.38770        -0.52240
H          20.70340       -10.86120         0.55240
H          19.63260       -13.10330         0.12660
H          19.69690       -15.05940        -1.64640
H          21.95140       -11.38090        -3.12740
H          19.49680        -8.76140         1.47040
H          17.16060        -8.57810         2.27600
H          15.25230        -9.10710         0.75510
H          15.69720        -9.80150        -1.59960
H          18.02030        -9.99560        -2.43510

