%nprocshared=8
%mem=1600MB
#p opt hf/6-31G

 Mol11.out

0  1
O          20.89360        -6.66390        -0.24970
C          21.49190        -7.66940         0.16210
C          23.00230        -7.64880         0.46230
N          23.66770        -6.40830         0.16400
N          23.44030        -5.24170         0.85880
N          23.83550        -4.22940         0.23380
C          24.33380        -4.62660        -1.05110
C          24.88930        -3.92620        -2.12040
C          25.29370        -4.66320        -3.22940
C          25.16180        -6.06010        -3.27800
C          24.61440        -6.78850        -2.22600
C          24.19260        -6.06700        -1.10960
N          20.82010        -8.87520         0.40780
C          21.56360       -10.07360         0.73300
C          22.31100       -10.71610        -0.38450
C          23.50190       -11.48170        -0.14680
C          23.99440       -12.02040        -1.31410
S          23.05080       -11.60950        -2.62890
C          21.97210       -10.72020        -1.72340
C          19.42500        -8.99650         0.18090
C          18.88190       -10.18830        -0.35120
C          17.50940       -10.32250        -0.53120
C          16.64530        -9.27640        -0.20110
C          17.17250        -8.09240         0.32730
C          18.54160        -7.94610         0.51710
C          15.16660        -9.37520        -0.35860
O          14.38800        -8.81580         0.43990
N          14.69060       -10.09870        -1.43780
C          13.30520       -10.26740        -1.68670
C          12.74250       -11.58700        -2.18100
C          12.76050       -10.39700        -3.09590
H          23.14290        -7.85880         1.56330
H          23.50460        -8.45730        -0.14470
H          25.00220        -2.83340        -2.08360
H          25.73020        -4.13960        -4.09360
H          25.50250        -6.59560        -4.17790
H          24.52000        -7.88090        -2.27580
H          22.29620        -9.82320         1.55760
H          20.84350       -10.83550         1.15920
H          23.94070       -11.61300         0.84460
H          24.88460       -12.64270        -1.39580
H          21.11080       -10.21050        -2.15730
H          19.53920       -11.02690        -0.63200
H          17.11940       -11.27380        -0.92500
H          16.48680        -7.27430         0.60610
H          18.93100        -6.99540         0.91810
H          15.33110       -10.51460        -2.06940
H          12.69630        -9.69200        -0.94860
H          13.42090       -12.43060        -2.39670
H          11.78350       -11.93100        -1.75570
H          11.81230        -9.88380        -3.33340
H          13.45190       -10.39770        -3.95660

