%nprocshared=8
%mem=1600MB
#p opt hf/6-31G

 Mol12.out

0  1
C          14.42940       -10.13130        -4.00100
S          13.81560       -10.66440        -2.51020
O          14.25760       -11.98410        -2.31340
O          12.42250       -10.45000        -2.49220
N          14.47650        -9.62870        -1.44040
C          15.82760        -9.49540        -1.08410
C          16.28000        -8.31700        -0.45050
C          17.60960        -8.16790        -0.08260
C          18.54720        -9.18870        -0.34370
C          18.09970       -10.35790        -0.99250
C          16.76570       -10.51800        -1.34180
N          19.90060        -9.05670         0.06960
C          20.57820       -10.25160         0.51860
C          21.39380       -10.99170        -0.48640
C          21.65750       -10.58580        -1.83470
C          22.44810       -11.50500        -2.49110
S          22.84370       -12.79190        -1.50810
C          22.00490       -12.20060        -0.20020
C          20.60030        -7.86330        -0.13990
O          20.04320        -6.85960        -0.61250
C          22.08000        -7.84850         0.28660
N          22.79700        -6.64530        -0.03760
N          22.64610        -5.45630         0.63450
N          23.14330        -4.48970         0.00740
C          23.64810        -4.94820        -1.25300
C          24.29480        -4.31570        -2.31420
C          24.66280        -5.10180        -3.40130
C          24.40290        -6.48180        -3.44000
C          23.76450        -7.14370        -2.39630
C          23.38680        -6.37210        -1.29680
H          15.54510       -10.07030        -4.03250
H          14.13480       -10.83800        -4.81840
H          14.04550        -9.12720        -4.30540
H          13.88720        -8.96650        -0.98220
H          15.57750        -7.49690        -0.23370
H          17.93260        -7.22810         0.39640
H          18.80970       -11.16790        -1.23020
H          16.45350       -11.46770        -1.81020
H          21.25300        -9.97290         1.38330
H          19.79790       -10.96170         0.92830
H          21.26460        -9.66730        -2.27760
H          22.78050       -11.42340        -3.52500
H          21.95000       -12.71900         0.75630
H          22.12020        -7.99060         1.40640
H          22.61310        -8.70370        -0.22460
H          24.50290        -3.23660        -2.28710
H          25.17050        -4.63250        -4.25780
H          24.71350        -7.05660        -4.32640
H          23.56160        -8.22230        -2.43830

