%nprocshared=8
%mem=1600MB
#p opt hf/6-31G

 Mol22.out

0  1
C          17.23480       -14.72390         0.56630
C          16.37780       -13.63480        -0.04540
C          15.51500       -14.21040        -1.14990
C          17.23270       -12.49600        -0.58590
C          17.64930       -11.55830         0.55120
N          18.61300       -10.53630         0.20810
C          19.97780       -10.82140         0.11040
O          20.79380        -9.96600        -0.27000
C          20.43400       -12.23600         0.51630
N          21.85430       -12.46210         0.45370
N          22.73400       -11.96630         1.39000
N          23.92030       -11.97910         0.98500
C          23.95500       -12.44210        -0.37150
C          24.98890       -12.65130        -1.28250
C          24.64580       -13.13120        -2.54270
C          23.31350       -13.40200        -2.89300
C          22.26030       -13.21300        -2.00290
C          22.58200       -12.72730        -0.73550
C          18.12200        -9.23030        -0.05940
C          16.88970        -9.04530        -0.72390
C          16.39590        -7.76690        -0.95430
C          17.10600        -6.63350        -0.53750
C          18.33140        -6.81320         0.11780
C          18.83670        -8.08550         0.35710
C          16.58170        -5.29750        -0.78530
C          15.93430        -4.97650        -1.98790
C          15.44440        -3.68420        -2.17360
C          15.61800        -2.74380        -1.14250
N          16.24000        -3.02570         0.01930
C          16.70880        -4.27500         0.18510
H          17.90880       -15.17280        -0.20310
H          17.86570       -14.31620         1.39270
H          16.58830       -15.53350         0.98350
H          15.69780       -13.22460         0.75520
H          16.15030       -14.58850        -1.98640
H          14.90360       -15.05860        -0.75790
H          14.82370       -13.43180        -1.55300
H          18.12870       -12.91610        -1.11130
H          16.64890       -11.92110        -1.35210
H          16.72090       -11.04940         0.94450
H          18.06460       -12.17720         1.39870
H          20.10410       -12.42440         1.58030
H          19.94490       -12.98850        -0.16580
H          26.03320       -12.44080        -1.01050
H          25.43760       -13.30230        -3.28790
H          23.09500       -13.77070        -3.90740
H          21.22430       -13.43070        -2.29180
H          16.30320        -9.90960        -1.07020
H          15.43100        -7.64620        -1.47060
H          18.91110        -5.93440         0.44170
H          19.81460        -8.19140         0.85540
H          15.82450        -5.73540        -2.77670
H          14.93620        -3.40140        -3.10450
H          15.24210        -1.71040        -1.24730
H          17.21100        -4.47680         1.14880

