%nprocshared=8
%mem=1600MB
#p opt hf/6-31G

 Mol28.out

0  1
Cl         23.94700       -14.79260        -1.74970
C          23.42840       -13.22270        -1.35820
C          23.69380       -12.70110        -0.08680
C          23.26300       -11.41350         0.22180
C          22.57360       -10.64990        -0.72150
C          22.30660       -11.17210        -1.98920
C          22.73880       -12.46680        -2.30810
C          21.58130       -10.41310        -3.06930
N          20.89650        -9.19790        -2.69730
C          21.60400        -8.00640        -2.48990
O          21.04550        -6.98660        -2.05690
C          23.09680        -8.00870        -2.87150
N          23.82570        -6.83060        -2.48530
N          23.70080        -5.61330        -3.11470
N          24.15430        -4.67100        -2.42270
C          24.58970        -5.17720        -1.15340
C          25.16740        -4.58380        -0.03210
C          25.47930        -5.41180         1.04230
C          25.23190        -6.79350         1.00990
C          24.66220        -7.41670        -0.09630
C          24.33930        -6.60320        -1.18220
C          19.52430        -9.30150        -2.33960
C          19.02720       -10.47320        -1.72750
C          17.67980       -10.58400        -1.40760
C          16.78620        -9.53740        -1.67310
C          17.27860        -8.37370        -2.27930
C          18.62250        -8.25090        -2.61370
C          15.37940        -9.65470        -1.31480
C          14.97380       -10.32940        -0.15280
C          13.61520       -10.41010         0.14970
C          12.69340        -9.80890        -0.72590
N          13.05670        -9.15690        -1.84780
C          14.36980        -9.08620        -2.12780
H          24.23350       -13.30230         0.66060
H          23.46460       -10.99440         1.21960
H          22.23540        -9.63840        -0.44550
H          22.53150       -12.88530        -3.30540
H          22.33130       -10.16730        -3.87980
H          20.81850       -11.11000        -3.53120
H          23.60520        -8.88650        -2.37520
H          23.16390        -8.11510        -3.99380
H          25.36590        -3.50290        -0.00260
H          25.93240        -4.97390         1.94490
H          25.49600        -7.40210         1.88890
H          24.47250        -8.49880        -0.11080
H          19.70360       -11.30990        -1.49030
H          17.31360       -11.51070        -0.93910
H          16.59660        -7.53420        -2.48770
H          18.98140        -7.31450        -3.07200
H          15.72150       -10.78160         0.51550
H          13.26760       -10.92880         1.05240
H          11.60840        -9.84880        -0.52300
H          14.63370        -8.54990        -3.05760

