%nprocshared=8
%mem=1600MB
#p opt hf/6-31G

 Mol38.out

0  1
C          18.16330        -6.48380        -0.64960
O          18.43120        -7.81270        -0.19580
C          18.01110        -8.80830        -1.06310
C          16.65520        -8.93890        -1.38100
C          16.20210       -10.02040        -2.14580
C          17.13470       -10.97250        -2.58810
C          18.48350       -10.84220        -2.29010
C          18.96110        -9.75170        -1.53310
N          20.34390        -9.64370        -1.22810
C          20.95220       -10.75800        -0.54350
C          21.89920       -11.61940        -1.33700
C          22.78870       -12.42930        -0.61670
C          23.66370       -13.28120        -1.28500
C          23.66530       -13.33940        -2.67860
C          22.77440       -12.53590        -3.39490
C          21.89070       -11.67630        -2.73220
Cl         22.75740       -12.60300        -5.09300
C          21.06460        -8.49540        -1.56660
O          20.55960        -7.59830        -2.25880
C          22.49860        -8.40130        -1.01530
N          23.28900        -7.32280        -1.54230
N          23.13200        -6.00290        -1.20720
N          23.80600        -5.24350        -1.94730
C          24.47870        -6.02220        -2.94280
C          25.35230        -5.70410        -3.98330
C          25.83610        -6.75230        -4.75810
C          25.47030        -8.08700        -4.51290
C          24.60670        -8.43880        -3.48200
C          24.11020        -7.40030        -2.69160
C          14.80790       -10.15680        -2.46280
C          13.76960        -9.14760        -2.33630
N          12.57610        -9.65320        -2.73400
N          12.79630       -10.91750        -3.10170
C          14.13210       -11.28890        -2.96370
H          18.58040        -5.84240         0.16640
H          18.69080        -6.29360        -1.61610
H          17.06430        -6.32120        -0.75730
H          15.94170        -8.18890        -1.00760
H          16.79510       -11.83030        -3.18750
H          19.19000       -11.60660        -2.65300
H          21.50350       -10.36540         0.36300
H          20.12660       -11.43390        -0.16650
H          22.79000       -12.39520         0.48350
H          24.35850       -13.91400        -0.71220
H          24.35890       -14.01180        -3.20550
H          21.19640       -11.05340        -3.31960
H          22.41670        -8.27120         0.10410
H          23.05170        -9.35800        -1.24630
H          25.64470        -4.66240        -4.17730
H          26.52390        -6.53500        -5.58940
H          25.87980        -8.87890        -5.15950
H          24.32450        -9.48430        -3.30240
H          13.88070        -8.12080        -1.98770
H          14.49170       -12.28550        -3.21490
H          12.04830       -11.48240        -3.42760

