%nprocshared=8
%mem=1600MB
#p opt hf/6-31G

 Mol32.out

0  1
Cl         25.78860       -13.00670        -1.42900
C          24.22540       -12.41450        -1.13240
C          23.64980       -12.58850         0.12960
C          22.36350       -12.09020         0.35830
C          21.65810       -11.43120        -0.65300
C          22.24580       -11.26690        -1.91020
C          23.53260       -11.75640        -2.15270
C          21.48530       -10.61110        -3.03270
N          20.87370        -9.34170        -2.71720
C          21.63890        -8.18040        -2.56010
O          21.13460        -7.13110        -2.13200
C          23.11570        -8.26360        -2.98530
N          23.86650        -7.04610        -2.82700
N          23.67460        -5.94080        -3.62830
N          24.12100        -4.89100        -3.11010
C          24.61990        -5.18240        -1.79680
C          25.21450        -4.40320        -0.80650
C          25.59880        -5.04330         0.36850
C          25.40870        -6.42120         0.55590
C          24.82250        -7.22700        -0.41630
C          24.42040        -6.60280        -1.59620
C          19.49210        -9.34650        -2.37500
C          18.54920        -9.89860        -3.26860
C          17.19970        -9.91850        -2.93950
C          16.74480        -9.38410        -1.72560
C          17.67750        -8.81580        -0.84830
C          19.03280        -8.79740        -1.16040
C          15.32710        -9.41870        -1.39370
C          14.52300       -10.51400        -1.74440
C          13.16850       -10.49790        -1.41490
C          12.65470        -9.37900        -0.73540
N          13.40620        -8.31680        -0.38520
C          14.71040        -8.34340        -0.71110
Cl         21.64900       -12.29220         1.88470
H          24.20000       -13.11000         0.92870
H          20.64410       -11.04110        -0.46260
H          23.99690       -11.63230        -3.14360
H          22.17580       -10.46930        -3.91550
H          20.67450       -11.33110        -3.35450
H          23.62560        -9.06120        -2.37020
H          23.15230        -8.55050        -4.07720
H          25.37080        -3.32520        -0.95340
H          26.06480        -4.45490         1.17360
H          25.73290        -6.87960         1.50310
H          24.68350        -8.30400        -0.25730
H          18.86990       -10.30710        -4.23930
H          16.47680       -10.34480        -3.65210
H          17.33910        -8.38030         0.10500
H          19.74310        -8.31960        -0.46610
H          14.95990       -11.37760        -2.26730
H          12.51320       -11.33820        -1.67770
H          11.58760        -9.32580        -0.45530
H          15.29670        -7.45280        -0.41900

