%nprocshared=8
%mem=1600MB
#p opt hf/6-31G

 Mol36.out

0  1
Cl         23.96880       -15.15660        -3.02700
C          23.16210       -13.75840        -2.49660
C          23.21750       -13.39440        -1.14610
C          22.54540       -12.25040        -0.72400
C          21.82130       -11.47530        -1.63150
C          21.76970       -11.83760        -2.97920
C          22.44680       -12.98610        -3.41290
C          20.98640       -11.08320        -4.02070
N          20.38080        -9.83000        -3.64170
C          21.13360        -8.65490        -3.54550
O          20.61350        -7.57810        -3.21440
C          22.62790        -8.75830        -3.90450
N          23.40560        -7.58100        -3.62430
N          23.33450        -6.42630        -4.36880
N          23.83070        -5.44220        -3.77020
C          24.24560        -5.84220        -2.45740
C          24.85060        -5.16810        -1.39750
C          25.12580        -5.89930        -0.24610
C          24.81950        -7.26600        -0.14550
C          24.22550        -7.96950        -1.18890
C          23.93300        -7.25220        -2.34890
C          19.02110        -9.86490        -3.22530
C          18.53920       -10.94760        -2.45780
C          17.20250       -11.00870        -2.08800
C          16.30190        -9.99780        -2.45800
C          16.78620        -8.91460        -3.20690
C          18.12060        -8.84230        -3.58960
C          14.91990       -10.07380        -2.07570
C          14.21680       -11.18520        -1.56600
N          12.90900       -10.75520        -1.34810
N          12.73130        -9.47380        -1.67590
C          13.92570        -9.01500        -2.12490
H          23.78190       -14.00690        -0.42680
H          22.58070       -11.95740         0.33650
H          21.28370       -10.58540        -1.26780
H          22.40680       -13.27910        -4.47360
H          21.66810       -10.89550        -4.90340
H          20.16140       -11.77090        -4.37970
H          23.08810        -9.60780        -3.32010
H          22.70360        -8.97470        -5.01040
H          25.09850        -4.09980        -1.47430
H          25.59660        -5.39520         0.61180
H          25.05520        -7.79670         0.79020
H          23.99640        -9.03940        -1.10040
H          19.22190       -11.75270        -2.14100
H          16.84880       -11.86050        -1.48770
H          16.09880        -8.10690        -3.50270
H          18.47450        -7.96920        -4.16220
H          14.53970       -12.20390        -1.35870
H          14.06640        -7.98650        -2.45720
H          12.15230       -11.29280        -0.99780

