%nprocshared=8
%mem=1600MB
#p opt hf/6-31G

 Mol34.out

0  1
Cl         23.98920       -14.74050        -1.56660
C          23.48380       -13.15230        -1.28450
C          23.76660       -12.52470        -0.04960
N          23.37680       -11.27110         0.23230
C          22.68920       -10.59570        -0.70920
C          22.36940       -11.12950        -1.97330
C          22.77890       -12.44040        -2.25830
C          21.63380       -10.37080        -3.04150
N          20.95140        -9.16030        -2.65210
C          21.65350        -7.95900        -2.48130
O          21.09310        -6.93470        -2.06370
C          23.14280        -7.96090        -2.87870
N          23.87380        -6.77690        -2.51760
N          23.74580        -5.57230        -3.17240
N          24.19130        -4.61440        -2.49740
C          24.62070        -5.09210        -1.21460
C          25.18380        -4.47180        -0.10060
C          25.48680        -5.27490         0.99520
C          25.24870        -6.65860         0.98920
C          24.69560        -7.30860        -0.11020
C          24.37780        -6.51940        -1.21520
C          19.58540        -9.27390        -2.27370
C          19.11020       -10.45000        -1.65210
C          17.76780       -10.57930        -1.31900
C          16.85780        -9.54650        -1.58130
C          17.32930        -8.37540        -2.18930
C          18.66820        -8.23420        -2.53660
C          15.45290        -9.68800        -1.22430
C          15.05740       -10.34110        -0.04700
C          13.69870       -10.45040         0.24720
C          12.76830        -9.89960        -0.65230
N          13.12260        -9.26800        -1.78870
C          14.43570        -9.16740        -2.05940
H          24.32480       -13.05370         0.74480
H          22.37420        -9.57640        -0.41460
H          22.54530       -12.89950        -3.23150
H          22.37540       -10.11930        -3.85830
H          20.86900       -11.06860        -3.49930
H          23.65920        -8.82950        -2.37480
H          23.19720        -8.08370        -4.00010
H          25.37750        -3.38970        -0.09220
H          25.92290        -4.81490         1.89510
H          25.50410        -7.24890         1.88350
H          24.51360        -8.39220        -0.10170
H          19.79930       -11.27720        -1.41930
H          17.41780       -11.50910        -0.84400
H          16.63350        -7.54540        -2.39000
H          19.00910        -7.29270        -2.99820
H          15.81280       -10.75200         0.63950
H          13.35770       -10.95340         1.16140
H          11.68300        -9.96330        -0.45650
H          14.69430        -8.64400        -2.99800

