%nprocshared=8
%mem=1600MB
#p opt hf/6-31G

 Mol33.out

0  1
C          25.30860       -13.31340        -1.65880
C          24.07600       -12.57840        -1.29080
C          23.62820       -12.59480         0.03570
C          22.45290       -11.92250         0.37690
C          21.71350       -11.23370        -0.58990
C          22.16740       -11.21000        -1.91050
C          23.34670       -11.87860        -2.25660
C          21.37020       -10.53710        -2.99570
N          20.78790        -9.25790        -2.66510
C          21.57140        -8.10820        -2.51970
O          21.07200        -7.03240        -2.15520
C          23.06590        -8.24120        -2.86040
N          23.82860        -7.02570        -2.75190
N          23.71200        -5.98510        -3.64570
N          24.19030        -4.91580        -3.19840
C          24.63920        -5.12140        -1.85240
C          25.24600        -4.29170        -0.91110
C          25.56820        -4.84990         0.32210
C          25.30400        -6.19730         0.61610
C          24.70500        -7.05270        -0.30400
C          24.36750        -6.51080        -1.54450
C          19.40450        -9.22720        -2.33280
C          18.44930        -9.76500        -3.22170
C          17.09690        -9.72890        -2.90360
C          16.65310        -9.15270        -1.70520
C          17.60110        -8.61530        -0.82390
C          18.95770        -8.65090        -1.12570
C          15.23230        -9.10280        -1.38790
C          14.36740       -10.15680        -1.71870
C          13.01510       -10.05470        -1.39400
C          12.56510        -8.89470        -0.73850
N          13.37510        -7.86860        -0.41150
C          14.67570        -7.97700        -0.73450
Cl         21.90800       -11.94690         1.98670
H          25.60290       -13.11000        -2.71740
H          26.15620       -13.01730        -0.99180
H          25.14420       -14.41480        -1.54500
H          24.20170       -13.14110         0.80020
H          20.77890       -10.71880        -0.31300
H          23.70090       -11.86430        -3.29920
H          22.02550       -10.40640        -3.90700
H          20.53690       -11.24680        -3.28160
H          23.52480        -8.99900        -2.16060
H          23.15760        -8.60950        -3.92410
H          25.45930        -3.23790        -1.14080
H          26.04280        -4.21980         1.08990
H          25.57870        -6.58870         1.60820
H          24.50570        -8.10440        -0.06020
H          18.76320       -10.20510        -4.18080
H          16.36460       -10.14280        -3.61430
H          17.27210        -8.16050         0.12380
H          19.68110        -8.19310        -0.43170
H          14.75380       -11.05510        -2.22270
H          12.31220       -10.86000        -1.64360
H          11.50300        -8.77580        -0.45970
H          15.31140        -7.11320        -0.46540

