%nprocshared=8
%mem=1600MB
#p opt hf/6-31G

 Mol39.out

0  1
Cl         23.77740       -15.31430        -2.91400
C          23.10010       -13.84400        -2.39870
C          23.28830       -13.41710        -1.07890
C          22.72440       -12.21180        -0.66900
C          21.98080       -11.43540        -1.55970
C          21.79490       -11.86170        -2.87630
C          22.35900       -13.07450        -3.29660
C          21.00280       -11.09710        -3.90330
N          20.38190        -9.85920        -3.49730
C          21.12450        -8.67740        -3.38100
O          20.59900        -7.62120        -2.99790
C          22.60840        -8.75060        -3.78590
N          23.37590        -7.56760        -3.50650
N          23.27880        -6.40440        -4.23530
N          23.78130        -5.42420        -3.63570
C          24.22940        -5.83730        -2.33770
C          24.85280        -5.17190        -1.28360
C          25.15730        -5.91540        -0.14710
C          24.86260        -7.28520        -0.05650
C          24.24930        -7.98010        -1.09450
C          23.92890        -7.25070        -2.23930
C          19.03210        -9.91800        -3.07140
C          18.52430       -11.03270        -2.37450
C          17.17360       -11.07130        -2.04050
C          16.33110        -9.99470        -2.39980
N          16.81750        -8.89630        -3.04610
C          18.11420        -8.86380        -3.36280
C          14.92190       -10.04450        -2.08510
C          14.18360       -11.10870        -1.52860
N          12.86880       -10.66040        -1.43470
N          12.71910        -9.40990        -1.88380
C          13.94150        -8.99130        -2.29160
H          23.87240       -14.02860        -0.37460
H          22.86210       -11.86900         0.36800
H          21.53780       -10.49160        -1.20470
H          22.21360       -13.41840        -4.33250
H          21.68630       -10.88190        -4.77870
H          20.18780       -11.78370        -4.28490
H          23.09520        -9.60360        -3.22810
H          22.65670        -8.94660        -4.89720
H          25.09190        -4.10100        -1.35270
H          25.64090        -5.41770         0.70720
H          25.12430        -7.82590         0.86640
H          24.02530        -9.05200        -1.01320
H          19.18240       -11.86990        -2.09210
H          16.76610       -11.93340        -1.49570
H          18.45840        -7.93590        -3.86150
H          14.48410       -12.10610        -1.21180
H          14.12190        -7.99910        -2.70930
H          12.08770       -11.16500        -1.08850

