%nprocshared=8
%mem=1600MB
#p opt hf/6-31G

 Mol41.out

0  1
C          15.68230        -6.30310        -1.91350
C          15.07850        -7.55840        -1.51720
C          15.21830        -5.08120        -1.41610
C          14.00700        -7.57200        -0.62100
C          14.15080        -5.13290        -0.52960
C          13.55860        -6.34900        -0.14010
N          16.70730        -6.69390        -2.80200
N          15.79740        -8.58140        -2.20830
N          16.69910        -8.05650        -2.91230
C          17.58940        -5.80810        -3.51210
C          18.40330        -4.88450        -2.58660
N          19.48700        -5.38080        -1.88870
O          18.05840        -3.68920        -2.48140
C          20.26260        -4.50830        -1.02520
C          23.74390        -3.43230        -2.08790
C          23.46260        -2.35610        -2.93460
C          22.71180        -4.14920        -1.47440
C          22.13500        -1.99610        -3.16310
C          21.38540        -3.77790        -1.70770
C          21.09870        -2.70100        -2.55410
Cl         25.36080        -3.87750        -1.80130
C          21.06750        -8.42720        -3.36270
C          20.91920        -9.35170        -2.31830
C          20.59690        -7.12530        -3.23600
C          20.29220        -8.94120        -1.13290
C          19.95450        -6.71550        -2.05020
C          19.81440        -7.64210        -0.99640
C          21.40310       -10.70790        -2.47750
C          21.67880       -11.35840        -3.70420
N          21.66210       -11.59090        -1.41370
N          22.10660       -12.64110        -3.38030
C          22.08120       -12.73770        -1.98210
H          15.69040        -4.13140        -1.71080
H          13.54390        -8.51980        -0.31250
H          13.75380        -4.19280        -0.11510
H          12.71700        -6.32470         0.56880
H          18.29010        -6.40460        -4.16380
H          16.96420        -5.12920        -4.16460
H          19.55670        -3.74180        -0.58670
H          20.67680        -5.13840        -0.18600
H          24.27900        -1.79730        -3.41610
H          22.94400        -4.99880        -0.81380
H          21.90670        -1.14930        -3.82740
H          20.04690        -2.41810        -2.73120
H          21.56900        -8.73000        -4.29430
H          20.74090        -6.41600        -4.06580
H          20.16930        -9.65190        -0.30000
H          19.32140        -7.34490        -0.05730
H          21.59020       -11.00900        -4.73090
H          22.36900       -13.34590        -4.01560
H          22.37270       -13.64710        -1.44630

