%nprocshared=8
%mem=1600MB
#p b3lyp/cc-pvdz pop=(chelpg,readradii)

 Mol08.log

0  1
O           3.27793        -2.47023         0.25369
C           2.18924        -1.91208         0.21846
C           1.02292        -2.50235         1.03154
N          -0.16689        -2.78847         0.24782
N          -0.05297        -3.27561        -1.02156
N          -1.22847        -3.51635        -1.49969
C          -2.16357        -3.20390        -0.53276
C          -1.48607        -2.73184         0.61201
C          -2.16915        -2.33522         1.77440
C          -3.55514        -2.42642         1.73778
C          -4.24763        -2.89663         0.59237
C          -3.56722        -3.28974        -0.55185
N           1.96731        -0.76914        -0.50802
C           3.08295        -0.27453        -1.34715
C           4.02341         0.66712        -0.62975
C           5.02947         0.24826         0.20999
S           5.91722         1.58259         0.87482
C           4.93131         2.72789         0.01548
C           3.97421         2.09786        -0.73530
C           0.78847         0.03951        -0.40273
C          -0.16001         0.04054        -1.43473
C          -1.28972         0.85153        -1.34730
C          -1.50800         1.67987        -0.22961
C          -0.54415         1.67587         0.79441
C           0.59537         0.87377         0.70607
C          -2.72139         2.52938        -0.13539
C          -2.66355         3.83395         0.39227
N          -3.71338         4.65300         0.51357
C          -4.90103         4.19436         0.09532
C          -5.08303         2.92279        -0.45525
C          -3.97933         2.07936        -0.56934
H           0.73314        -1.81114         1.83592
H           1.41979        -3.42286         1.48201
H          -1.64764        -1.97501         2.66242
H          -4.13013        -2.13002         2.61780
H          -5.33776        -2.95202         0.62049
H          -4.08635        -3.65739        -1.43829
H           3.62624        -1.16061        -1.69773
H           2.63443         0.22930        -2.21452
H           5.27640        -0.77748         0.47491
H           5.12185         3.79481         0.11120
H           3.25301         2.63191        -1.35602
H          -0.01415        -0.61420        -2.29518
H          -2.01120         0.84879        -2.16660
H          -0.69277         2.29653         1.68009
H           1.34491         0.89159         1.49965
H          -1.70133         4.24389         0.71752
H          -5.74885         4.87842         0.20685
H          -6.07412         2.59704        -0.77754
H          -4.09374         1.06885        -0.96817

Br 1.90

