%nprocshared=8
%mem=1600MB
#p b3lyp/cc-pvdz pop=(chelpg,readradii)

 Mol07.log

0  1
O          -3.28351        -2.45347         0.27187
C          -2.19354        -1.89736         0.23451
C          -1.02737        -2.48523         1.04932
N           0.15135        -2.79717         0.25853
N           0.01967        -3.29731        -1.00407
N           1.18753        -3.56078        -1.48897
C           2.13513        -3.25072        -0.53352
C           1.47417        -2.75548         0.61107
C           2.17261        -2.35405         1.76256
C           3.55680        -2.46496         1.71533
C           4.23276        -2.95891         0.57012
C           3.53720        -3.35633        -0.56336
N          -1.96821        -0.75863        -0.49664
C          -3.07988        -0.26768        -1.34220
C          -4.02376         0.67794        -0.63413
C          -5.03003         0.26420         0.20781
S          -5.92266         1.60231         0.85879
C          -4.93848         2.74227        -0.00973
C          -3.97836         2.10774        -0.75286
C          -0.78806         0.04926        -0.39138
C          -0.60301         0.89671         0.70873
C           0.53523         1.70068         0.79473
C           1.50824         1.69450        -0.22089
C           1.29793         0.85055        -1.32859
C           0.16901         0.03784        -1.41502
C           2.72108         2.54966        -0.12712
C           2.64947         3.85243         0.40049
C           3.78911         4.65418         0.48910
C           5.02621         4.17092         0.05267
C           5.11279         2.87845        -0.47314
C           3.97326         2.07657        -0.56223
H          -1.42926        -3.39394         1.51895
H          -0.72215        -1.78298         1.83814
H           1.66373        -1.97431         2.64974
H           4.14350        -2.16462         2.58620
H           5.32227        -3.02796         0.58926
H           4.04365        -3.74082        -1.44996
H          -2.62751         0.23208        -2.20987
H          -3.62240        -1.15496        -1.69116
H          -5.27421        -0.75979         0.48179
H          -5.13219         3.80948         0.07563
H          -3.25715         2.63749        -1.37722
H          -1.35823         0.92319         1.49679
H           0.67663         2.33268         1.67363
H           2.02544         0.83841        -2.14217
H           0.02958        -0.62657        -2.26925
H           1.68464         4.25152         0.72091
H           3.70802         5.66579         0.89357
H           5.91764         4.79828         0.12161
H           6.07588         2.48739        -0.80934
H           4.05937         1.05872        -0.94840

Br 1.90

