%nprocshared=8
%mem=1600MB
#p b3lyp/cc-pvdz pop=(chelpg,readradii)

 Mol10.log

0  1
N           6.87118        -1.16580         0.62905
C           5.79444        -2.02053         0.52105
O           5.90015        -3.22063         0.73196
C           4.47819        -1.38895         0.16630
C           3.43193        -2.23521        -0.22960
C           2.18171        -1.73137        -0.57381
C           1.93895        -0.34637        -0.51225
C           2.97519         0.50499        -0.09174
C           4.22802        -0.01224         0.23965
N           0.67848         0.21174        -0.90593
C           0.67598         1.53658        -1.54136
C           0.33723         2.69994        -0.63151
C           0.08123         4.02108        -1.13284
C          -0.19129         4.92679        -0.14301
S          -0.14577         4.18973         1.42872
C           0.24767         2.64417         0.73859
C          -0.51446        -0.46252        -0.65539
O          -0.57942        -1.50957        -0.04044
C          -1.79324         0.20140        -1.20705
N          -2.95818        -0.61845        -0.99730
N          -3.54564        -1.22451        -2.07589
N          -4.57176        -1.89711        -1.68499
C          -4.69174        -1.75451        -0.31571
C          -5.64226        -2.27541         0.57993
C          -5.50695        -1.94286         1.92039
C          -4.44857        -1.11310         2.37109
C          -3.49832        -0.59343         1.50125
C          -3.64333        -0.92960         0.14523
H           6.87650        -0.30652         0.09227
H           7.76883        -1.63074         0.72259
H           3.62546        -3.30794        -0.26817
H           1.39037        -2.41018        -0.87988
H           2.80278         1.57706         0.00641
H           4.99815         0.67512         0.59570
H           1.67250         1.68440        -1.98256
H          -0.01817         1.52973        -2.39569
H           0.09819         4.28097        -2.19260
H          -0.42298         5.98514        -0.24439
H           0.39685         1.78096         1.38399
H          -1.93650         1.19259        -0.74807
H          -1.72098         0.33833        -2.29508
H          -6.44935        -2.91470         0.21913
H          -6.22352        -2.32740         2.64898
H          -4.37572        -0.88248         3.43627
H          -2.67667         0.02736         1.85946

Br 1.90

