%nprocshared=8
%mem=1600MB
#p b3lyp/cc-pvdz pop=(chelpg,readradii)

 Mol15.log

0  1
O           1.00363        -1.44103        -0.13562
C           1.14944        -0.38094        -0.71457
C           2.54864         0.06657        -1.18727
N           3.54758        -0.94239        -0.94434
N           4.09411        -1.60688        -2.00919
N           4.97478        -2.44654        -1.58668
C           5.03449        -2.35992        -0.20889
C           5.83527        -3.04888         0.71917
C           5.67557        -2.73214         2.06077
C           4.73767        -1.75459         2.48119
C           3.93530        -1.06781         1.57899
C           4.10527        -1.38878         0.22216
N           0.10583         0.49562        -0.99121
C           0.36039         1.81446        -1.58496
C           0.85346         2.88128        -0.62823
C           1.34379         4.15378        -1.07882
C           1.72310         4.97674        -0.05262
S           1.49475         4.21844         1.49296
C           0.87934         2.77717         0.74155
C          -1.24967         0.14969        -0.67014
C          -2.13930         1.14159        -0.22748
C          -3.47315         0.83389         0.03959
C          -3.96717        -0.47112        -0.11686
C          -3.06424        -1.45571        -0.55985
C          -1.73258        -1.16030        -0.83294
C          -5.38434        -0.83628         0.16193
C          -6.32336         0.08818         0.65898
C          -7.63239        -0.32562         0.89618
C          -7.98286        -1.65131         0.63481
C          -6.98661        -2.50020         0.14521
N          -5.72906        -2.11651        -0.08633
H           2.55597         0.23397        -2.27347
H           2.83419         1.01037        -0.69621
H           6.55029        -3.80050         0.38137
H           6.27754        -3.24485         2.81377
H           4.63938        -1.54191         3.54807
H           3.20235        -0.33291         1.91264
H           1.07754         1.71091        -2.41409
H          -0.57885         2.14187        -2.05439
H           1.41112         4.43915        -2.13000
H           2.12962         5.98430        -0.11303
H           0.56280         1.93528         1.35383
H          -1.79342         2.16425        -0.07282
H          -4.12354         1.64051         0.37990
H          -3.43642        -2.47079        -0.69359
H          -1.06389        -1.94972        -1.16696
H          -6.03994         1.12030         0.86421
H          -8.36994         0.38161         1.28290
H          -8.99566        -2.02062         0.80537
H          -7.21322        -3.54955        -0.07309

Br 1.90

