%nprocshared=8
%mem=1600MB
#p b3lyp/cc-pvdz pop=(chelpg,readradii)

 Mol16.log

0  1
C           6.10219         0.99552         2.56516
O           5.26142         0.47178         1.53298
C           5.79658        -0.46701         0.71666
N           7.06689        -0.80735         0.89986
C           7.59826        -1.74139         0.09424
C           6.88111        -2.36744        -0.91771
C           5.54252        -1.99857        -1.09505
C           4.94763        -1.03151        -0.27851
C           3.52007        -0.65769        -0.45172
C           2.56238        -1.64161        -0.76176
C           1.22257        -1.32811        -0.97951
C           0.78757         0.00390        -0.88925
C           1.72978         0.99523        -0.57057
C           3.06868         0.66956        -0.35693
N          -0.57601         0.36973        -1.15468
C          -0.82773         1.65685        -1.81585
C          -1.23527         2.79550        -0.90283
C          -1.72033         4.05039        -1.40526
C          -2.01599         4.94716        -0.41402
S          -1.71284         4.28181         1.16128
C          -1.18031         2.77878         0.46989
C          -1.62551        -0.45454        -0.76674
O          -1.47718        -1.48566        -0.13720
C          -3.03758         0.01066        -1.18117
N          -4.04824        -0.95068        -0.82140
N          -4.67226        -1.66107        -1.81120
N          -5.54816        -2.44838        -1.28939
C          -5.52549        -2.27847         0.08173
C          -6.28839        -2.88785         1.09361
C          -6.04282        -2.49718         2.40234
C          -5.05736        -1.52407         2.70886
C          -4.29153        -0.91525         1.72281
C          -4.54824        -1.31089         0.39971
H           6.98941         1.49195         2.14313
H           5.47759         1.71798         3.10648
H           6.44203         0.19743         3.24283
H           8.64887        -1.98877         0.27779
H           7.35078        -3.11636        -1.55696
H           4.95204        -2.45519        -1.89219
H           2.86585        -2.68899        -0.81928
H           0.51340        -2.12123        -1.20151
H           1.42184         2.03705        -0.47297
H           3.77191         1.46235        -0.10689
H           0.09168         1.92529        -2.35647
H          -1.59360         1.52563        -2.59610
H          -1.84414         4.27073        -2.46690
H          -2.40017         5.96017        -0.51552
H          -0.84762         1.96844         1.11531
H          -3.26589         0.98906        -0.72962
H          -3.10667         0.11686        -2.27284
H          -7.04100        -3.63691         0.84301
H          -6.61295        -2.94658         3.21797
H          -4.89192        -1.25144         3.75360
H          -3.52211        -0.18318         1.96924

Br 1.90

