%nprocshared=8
%mem=1600MB
#p b3lyp/cc-pvdz pop=(chelpg,readradii)

 Mol11.log

0  1
O           1.29428        -1.49309        -0.15337
C           1.38226        -0.43191        -0.74094
C           2.75852         0.11396        -1.17451
N           3.82208        -0.81077        -0.87924
N           4.44337        -1.46194        -1.91129
N           5.36961        -2.22439        -1.44320
C           5.38551        -2.09796        -0.06717
C           6.20795        -2.70317         0.89942
C           5.98970        -2.36412         2.22732
C           4.97379        -1.44582         2.59656
C           4.14937        -0.84186         1.65564
C           4.37819        -1.18531         0.31308
N           0.28498         0.36210        -1.06224
C           0.45828         1.69079        -1.66437
C           0.83873         2.80217        -0.70725
C           1.24059         4.10442        -1.16016
C           1.52642         4.96460        -0.13423
S           1.31570         4.20652         1.41387
C           0.83464         2.71423         0.66396
C          -1.04849        -0.08460        -0.78051
C          -2.02087         0.83977        -0.36535
C          -3.33452         0.42926        -0.13183
C          -3.70778        -0.91106        -0.29811
C          -2.73522        -1.82434        -0.73250
C          -1.42204        -1.42836        -0.96462
C          -5.10430        -1.42608        -0.08113
O          -5.48618        -2.48313        -0.56528
N          -5.92995        -0.62869         0.68581
C          -7.23821        -1.09342         1.05969
C          -8.38601        -0.85751         0.11248
C          -8.27539        -0.04875         1.38604
H           2.78919         0.26376        -2.26299
H           2.95411         1.08479        -0.69223
H           6.98381        -3.40964         0.60078
H           6.60615        -2.81224         3.00921
H           4.83218        -1.21269         3.65426
H           3.35842        -0.15163         1.95029
H           1.20766         1.63161        -2.46892
H          -0.48675         1.94114        -2.16850
H           1.31422         4.38392        -2.21246
H           1.85473         6.00020        -0.19601
H           0.56947         1.85575         1.27763
H          -1.75748         1.88724        -0.21444
H          -4.07243         1.17911         0.16081
H          -3.03791        -2.85978        -0.89351
H          -0.68465        -2.15912        -1.28738
H          -5.47717         0.01207         1.32921
H          -7.25527        -2.03004         1.62785
H          -8.15337        -0.35426        -0.82760
H          -9.15328        -1.63139         0.04716
H          -8.96800        -0.25538         2.20445
H          -7.97702         0.99845         1.29181

Br 1.90

