%nprocshared=8
%mem=1600MB
#p b3lyp/cc-pvdz pop=(chelpg,readradii)

 Mol18.log

0  1
C          -8.26871        -2.50351         0.80606
N          -7.23492        -1.54574         0.46446
C          -5.90812        -1.77931         0.28433
C          -5.29920        -0.54634         0.05685
C          -6.38525         0.37059         0.13084
N          -7.54498        -0.23675         0.37595
C          -3.88126        -0.26677        -0.20451
C          -3.01216        -1.25490        -0.70607
C          -1.66618        -0.99689        -0.94984
C          -1.13360         0.27888        -0.70074
C          -1.98715         1.27542        -0.20322
C          -3.33437         1.00502         0.03700
N           0.24030         0.58590        -0.99045
C           0.55109         1.91504        -1.53112
C           1.07479         2.92595        -0.53066
C           1.60693         4.19914        -0.92870
C           2.00959         4.96766         0.13028
S           1.75263         4.15560         1.64377
C           1.09357         2.76609         0.83383
C           1.24187        -0.34194        -0.73732
O           1.04427        -1.42040        -0.20791
C           2.66549         0.06637        -1.17153
N           3.61724        -0.99433        -0.96048
N           4.14229        -1.64300        -2.04541
N           4.97590        -2.54129        -1.64825
C           5.02350        -2.51213        -0.26764
C           5.77805        -3.27617         0.64019
C           5.61780        -3.00522         1.99173
C           4.72418        -1.99956         2.44142
C           3.96772        -1.23860         1.55934
C           4.13802        -1.51384         0.19251
H          -8.49242        -2.47529         1.88486
H          -9.18156        -2.25536         0.24813
H          -7.93412        -3.51294         0.53147
H          -5.49545        -2.78253         0.34887
H          -6.36819         1.44930        -0.01334
H          -3.40146        -2.24920        -0.93564
H          -1.02714        -1.78785        -1.33495
H          -1.60003         2.27034         0.02089
H          -3.96418         1.79729         0.44637
H           1.27189         1.81696        -2.35820
H          -0.37129         2.29552        -1.99407
H           1.68555         4.52451        -1.96738
H           2.44764         5.96354         0.11104
H           0.74853         1.91107         1.41148
H           2.69602         0.28083        -2.24897
H           2.98335         0.97472        -0.63564
H           6.45942        -4.04830         0.27984
H           6.18479        -3.57642         2.72966
H           4.62378        -1.82436         3.51490
H           3.26814        -0.48163         1.91457

Br 1.90

