%nprocshared=8
%mem=1600MB
#p b3lyp/cc-pvdz pop=(chelpg,readradii)

 Mol27.log

0  1
O           1.21735        -1.37240        -0.42481
C           1.33695        -0.26220        -0.90680
C           2.72524         0.31553        -1.24621
N           3.77601        -0.64023        -1.00456
N           4.39330        -1.24791        -2.06222
N           5.29448        -2.06035        -1.62641
C           5.29207        -2.01319        -0.24551
C           6.08261        -2.69202         0.69876
C           5.85097        -2.42084         2.04007
C           4.85382        -1.49652         2.44496
C           4.06137        -0.81934         1.52672
C           4.30285        -1.09696         0.17114
N           0.24844         0.55306        -1.18694
C           0.37258         1.95606        -1.61211
C           0.38963         2.93183        -0.45899
C          -0.56186         3.88271        -0.19839
S          -0.13936         4.78242         1.22476
C           1.29704         3.79682         1.36485
N           1.44040         2.89277         0.43889
C          -1.07080         0.09307        -0.84671
C          -2.05685         0.03231        -1.83904
C          -3.35257        -0.37640        -1.52428
C          -3.69591        -0.75117        -0.21297
C          -2.69012        -0.69841         0.77036
C          -1.39664        -0.28085         0.46248
C          -5.07228        -1.19348         0.12096
C          -6.20756        -0.59978        -0.45492
C          -7.47510        -1.05883        -0.10096
C          -7.57556        -2.09939         0.82629
N          -6.51206        -2.69009         1.38807
C          -5.30326        -2.24230         1.03312
H           2.79221         0.57495        -2.31218
H           2.89372         1.22589        -0.65035
H           6.84531        -3.40131         0.37381
H           6.44272        -2.92793         2.80498
H           4.70250        -1.31778         3.51198
H           3.28651        -0.12012         1.84302
H           1.28506         2.07607        -2.21026
H          -0.46971         2.19322        -2.27524
H          -1.47358         4.09618        -0.75182
H           2.00600         3.95625         2.17855
H          -1.80243         0.28472        -2.87093
H          -4.09778        -0.44293        -2.31961
H          -2.92979        -0.96301         1.80201
H          -0.63331        -0.24466         1.23905
H          -6.09718         0.23011        -1.15676
H          -8.37449        -0.61035        -0.52797
H          -8.55630        -2.47775         1.13335
H          -4.45219        -2.76177         1.48585

Br 1.90

