%nprocshared=8
%mem=1600MB
#p b3lyp/cc-pvdz pop=(chelpg,readradii)

 Mol23.log

0  1
O           1.34408        -0.75932        -0.39108
C           1.42741         0.45404        -0.46474
C           2.80375         1.14238        -0.56809
N           3.87862         0.19591        -0.73278
N           4.59868         0.21702        -1.89806
N           5.54402        -0.65503        -1.83625
C           5.47817        -1.28369        -0.60766
C           6.28708        -2.28974        -0.05008
C           5.98063        -2.71815         1.23358
C           4.88886        -2.16789         1.95286
C           4.07510        -1.17921         1.41484
C           4.39510        -0.74282         0.11844
N           0.32510         1.28951        -0.45789
C           0.41366         2.76051        -0.42358
C           0.39926         3.34798         0.97422
C          -0.04573         4.78034         1.16753
C          -0.90926         3.64701         1.66987
C          -0.98370         0.70020        -0.36001
C          -1.32954        -0.13192         0.71169
C          -2.60958        -0.67663         0.79154
C          -3.58337        -0.40606        -0.18768
C          -3.22033         0.42611        -1.26157
C          -1.93653         0.96431        -1.35140
C          -4.94651        -0.98389        -0.09259
C          -5.17065        -2.29662         0.35444
C          -6.47518        -2.78289         0.42077
C          -7.52395        -1.94403         0.03424
N          -7.34268        -0.68594        -0.39022
C          -6.08567        -0.23339        -0.44352
H           2.85695         1.79785        -1.44772
H           2.98187         1.76371         0.32613
H           7.12049        -2.70611        -0.61781
H           6.58378        -3.49782         1.70322
H           4.67689        -2.54145         2.95722
H           3.22024        -0.78342         1.96281
H           1.31800         3.07920        -0.96014
H          -0.43480         3.16272        -0.99711
H           1.21928         3.00919         1.61589
H           0.49088         5.39115         1.89645
H          -0.38826         5.32981         0.28627
H          -1.83401         3.43085         1.12967
H          -0.96771         3.47847         2.74729
H          -0.59298        -0.35283         1.48349
H          -2.86582        -1.30402         1.64778
H          -3.93797         0.62467        -2.05989
H          -1.66658         1.57802        -2.21345
H          -4.32737        -2.93678         0.62349
H          -6.67789        -3.80213         0.75596
H          -8.55972        -2.29813         0.06629
H          -5.96823         0.80566        -0.76947

Br 1.90

