%nprocshared=8
%mem=1600MB
#p b3lyp/cc-pvdz pop=(chelpg,readradii)

 Mol29.log

0  1
F           2.83326         4.88917         1.98029
C           2.24385         4.00457         1.16324
C           1.58593         2.90420         1.69874
C           0.97141         1.98036         0.84816
C           1.01356         2.15195        -0.54107
C           1.68569         3.26567        -1.06640
C           2.29753         4.19193        -0.22257
Cl          3.13605         5.57734        -0.87720
C           0.34092         1.18579        -1.51140
N          -0.12678        -0.08153        -0.94041
C           0.75850        -1.12442        -0.68260
O           0.43664        -2.15845        -0.12901
C           2.21469        -0.90265        -1.14285
N           3.03053        -2.06897        -0.92792
N           3.44048        -2.80060        -2.01105
N           4.16415        -3.78828        -1.61331
C           4.25253        -3.73831        -0.23504
C           4.92977        -4.57389         0.67045
C           4.84216        -4.25904         2.01915
C           4.09489        -3.14035         2.46814
C           3.41617        -2.30672         1.58817
C           3.51271        -2.62744         0.22418
C          -1.52419        -0.20982        -0.63350
C          -2.24795         0.90551        -0.18222
C          -3.61684         0.81206         0.06997
C          -4.31180        -0.39503        -0.10847
C          -3.57317        -1.50617        -0.55558
C          -2.20776        -1.42352        -0.81774
C          -5.76706        -0.49299         0.16171
C          -6.37443         0.18028         1.23467
C          -7.74755         0.05070         1.43562
C          -8.47989        -0.75448         0.55916
N          -7.93065        -1.40490        -0.47576
C          -6.61340        -1.26611        -0.65737
H           1.56263         2.78486         2.78300
H           0.45551         1.12013         1.27718
H           1.74196         3.42503        -2.14524
H          -0.53321         1.67324        -1.96633
H           1.02616         0.98077        -2.34778
H           2.25352        -0.70947        -2.22421
H           2.65284        -0.03275        -0.62804
H           5.49861        -5.43249         0.31070
H           5.35301        -4.88282         2.75537
H           4.04706        -2.93328         3.53954
H           2.82827        -1.46027         1.94432
H          -1.74910         1.86173        -0.01994
H          -4.15349         1.70544         0.39571
H          -4.07156        -2.46860        -0.68616
H          -1.66964        -2.30797        -1.14854
H          -5.77077         0.78102         1.91894
H          -8.24371         0.55647         2.26651
H          -9.55887        -0.88463         0.69356
H          -6.19637        -1.78867        -1.52478

Br 1.90

