%nprocshared=8
%mem=1600MB
#p b3lyp/cc-pvdz pop=(chelpg,readradii)

 Mol38.log

0  1
C          -2.41991        -1.27995        -3.58847
O          -1.64441        -0.69580        -2.55014
C          -2.20740        -0.55576        -1.31506
C          -3.53247        -0.88085        -1.00786
C          -4.03625        -0.71646         0.29706
C          -3.17812        -0.21329         1.28870
C          -1.86356         0.13148         0.97643
C          -1.36492        -0.02010        -0.31657
N          -0.00802         0.32717        -0.63980
C           0.21983         1.40051        -1.62024
C           0.90032         2.64718        -1.07324
C           1.83068         3.33900        -1.86058
C           2.42209         4.51624        -1.39347
C           2.10070         5.02020        -0.13164
C           1.17508         4.32343         0.64893
C           0.57392         3.14957         0.19471
Cl          0.75562         4.93936         2.24378
C           0.99777        -0.49039        -0.15292
O           0.77907        -1.43812         0.58180
C           2.44069        -0.10983        -0.52519
N           3.33447        -1.24595        -0.50920
N           3.91315        -1.62931        -1.68980
N           4.73596        -2.59704        -1.47334
C           4.73059        -2.87866        -0.12131
C           5.46161        -3.82656         0.61772
C           5.25523        -3.86439         1.98878
C           4.33450        -2.98806         2.61970
C           3.59704        -2.05319         1.90557
C           3.81957        -2.01012         0.51853
C          -5.43085        -1.07000         0.59986
C          -6.28838        -1.97723        -0.08867
N          -7.49593        -2.05755         0.46527
N          -7.43486        -1.20641         1.50706
C          -6.23054        -0.59358         1.63574
H          -1.75937        -1.33111        -4.46343
H          -2.75017        -2.29853        -3.32144
H          -3.30296        -0.66383        -3.83394
H          -4.19314        -1.25788        -1.78656
H          -3.52978        -0.11050         2.31630
H          -1.19645         0.50517         1.75464
H           0.77970         1.01980        -2.48844
H          -0.77076         1.67613        -2.00649
H           2.09818         2.95254        -2.84740
H           3.14876         5.04467        -2.01425
H           2.56008         5.93352         0.24682
H          -0.14580         2.63081         0.82742
H           2.53048         0.31535        -1.53057
H           2.78716         0.65445         0.19115
H           6.16106        -4.49736         0.11654
H           5.80274        -4.58512         2.59971
H           4.19259        -3.06137         3.70036
H           2.85848        -1.41349         2.38638
H          -6.05943        -2.59339        -0.95601
H          -6.03944         0.13401         2.41962
H          -8.25150        -1.08315         2.09167

Br 1.90

