%nprocshared=8
%mem=1600MB
#p b3lyp/cc-pvdz pop=(chelpg,readradii)

 Mol35.log

0  1
Cl         -3.44047         5.82773        -0.55181
C          -2.60845         4.41020         0.07303
C          -2.58500         4.18004         1.45131
C          -1.92240         3.04774         1.92643
C          -1.29352         2.16174         1.04457
C          -1.32190         2.39989        -0.33529
C          -1.99011         3.53519        -0.81906
C          -0.63620         1.48280        -1.34329
N          -0.17722         0.18637        -0.83529
C          -1.06462        -0.86407        -0.62948
O          -0.74659        -1.92586        -0.12831
C          -2.51997        -0.61296        -1.07760
N          -3.34648        -1.77912        -0.90091
N          -3.78627        -2.45713        -2.00601
N          -4.51721        -3.45162        -1.63800
C          -4.58017        -3.45976        -0.25760
C          -5.25276        -4.32394         0.62435
C          -5.13662        -4.06787         1.98330
C          -4.36554        -2.97938         2.46535
C          -3.69082        -2.11854         1.60899
C          -3.81639        -2.37970         0.23461
C           1.22118         0.03063        -0.54265
C           1.94701         1.10054         0.00328
C           3.31520         0.97942         0.24189
C           4.01054        -0.21040        -0.04066
C           3.27126        -1.27026        -0.60436
C           1.90431        -1.15764        -0.84559
C           5.45560        -0.33026         0.26638
C           6.02852         0.34334         1.32736
C           7.41714         0.28048         1.63111
C           8.21682        -0.48949         0.83516
N           7.66860        -1.17025        -0.20983
C           6.30878        -1.18402        -0.57540
O           5.96318        -1.87722        -1.52882
H          -3.07903         4.87447         2.13099
H          -1.89545         2.85319         3.00075
H          -0.77843         1.28215         1.43390
H          -2.03256         3.74119        -1.89054
H          -1.30832         1.32675        -2.20129
H           0.24580         1.99366        -1.75526
H          -2.95014         0.24166        -0.53165
H          -2.55918        -0.38145        -2.15144
H          -5.83991        -5.15899         0.23935
H          -5.64292        -4.71566         2.70182
H          -4.29533        -2.81893         3.54355
H          -3.08374        -1.29637         1.98880
H           1.45108         2.04108         0.24700
H           3.85117         1.84321         0.63990
H           3.78327        -2.19184        -0.87179
H           1.36535        -2.00220        -1.26861
H           5.38618         0.94135         1.97797
H           7.83493         0.82180         2.47828
H           9.29115        -0.60657         0.98296
H           8.25002        -1.75544        -0.80359

Br 1.90

