%nprocshared=8
%mem=1600MB
#p b3lyp/cc-pvdz pop=(chelpg,readradii)

 Mol40.log

0  1
Cl         -3.37724         5.24162        -0.28338
C          -2.11971         4.12197         0.22760
C          -1.68965         4.12948         1.55484
C          -0.69207         3.22853         1.93825
C          -0.13496         2.33956         1.01628
C          -0.57608         2.33509        -0.31535
C          -1.57819         3.23515        -0.70527
C           0.04129         1.41838        -1.35882
N           0.36343         0.05334        -0.89658
C          -0.64277        -0.88782        -0.70560
O          -0.45825        -2.00275        -0.25137
C          -2.06442        -0.44576        -1.10979
N          -3.01993        -1.51059        -0.94964
N          -3.50303        -2.14914        -2.05978
N          -4.33466        -3.06502        -1.70105
C          -4.42142        -3.06027        -0.32175
C          -5.18943        -3.84990         0.55205
C          -5.06946        -3.59991         1.91195
C          -4.20360        -2.58940         2.40286
C          -3.43498        -1.80210         1.55468
C          -3.56408        -2.05762         0.17968
C           1.73639        -0.23719        -0.61104
C           2.25720        -1.54431        -0.54577
C           3.61706        -1.69451        -0.30439
C           4.45019        -0.57637        -0.11609
C           3.81520         0.67190        -0.20118
N           2.51147         0.83901        -0.44125
C           5.88769        -0.69178         0.15183
C           6.57431        -1.77418         0.69680
N           7.88118        -1.41189         0.75269
N           8.11580        -0.17214         0.28291
C           6.91446         0.27026        -0.08003
H          -2.12914         4.82543         2.26971
H          -0.34225         3.22641         2.97296
H           0.65602         1.65635         1.32513
H          -1.94214         3.25136        -1.73450
H          -0.61619         1.35618        -2.23723
H           0.99112         1.85475        -1.68933
H          -2.37571         0.43312        -0.52452
H          -2.09483        -0.17022        -2.17333
H          -5.85022        -4.62470         0.16050
H          -5.64842        -4.19111         2.62436
H          -4.13625        -2.43031         3.48142
H          -2.75919        -1.03852         1.94146
H           1.61355        -2.40687        -0.67971
H           4.03928        -2.70181        -0.28116
H           4.38647         1.59319        -0.05192
H           6.23211        -2.73979         1.05903
H           6.82173         1.26206        -0.51812
H           8.65564        -1.96151         1.10225

Br 1.90

