%nprocshared=8
%mem=1600MB
#p opt freq b3lyp/cc-pvdz

 Mol09.log

0  1
O           0.23401        -1.70829        -0.04476
C           0.08867        -0.49793        -0.23537
C           1.04743         0.20068        -1.18695
N           2.35317         0.34555        -0.58398
N           2.79695         1.58596        -0.22926
N           3.98138         1.50099         0.21860
C           4.38430         0.17670         0.17452
C           5.59450        -0.41447         0.53952
C           5.70572        -1.77145         0.36809
C           4.63107        -2.53169        -0.14831
C           3.43351        -1.96042        -0.50542
C           3.33407        -0.57483        -0.33903
N          -0.87459         0.21567         0.39155
C          -1.73432        -0.49279         1.36403
C          -2.95674        -1.12684         0.74861
C          -4.25901        -0.49072         0.72189
C          -5.21355        -1.22261         0.12726
S          -4.57237        -2.78608        -0.45998
C          -2.96001        -2.34135         0.16925
C          -1.14725         1.60258         0.14043
C          -0.50392         2.58222         0.88520
C          -0.79149         3.92070         0.66206
C          -1.72329         4.28188        -0.30075
C          -2.36662         3.30240        -1.04420
C          -2.08030         1.96242        -0.82483
H           1.12838        -0.41787        -2.06934
H           0.72420         1.18463        -1.47173
H           6.39355         0.18017         0.93397
H           6.61577        -2.27251         0.63320
H           4.75481        -3.59203        -0.25397
H           2.60686        -2.54258        -0.85381
H          -1.12780        -1.24579         1.83928
H          -2.02649         0.23055         2.11150
H          -4.44160         0.47698         1.14421
H          -6.24318        -0.98296        -0.01284
H          -2.13268        -3.00411         0.05221
H           0.22672         2.29675         1.61562
H          -0.28382         4.67450         1.23085
H          -1.94255         5.31759        -0.47338
H          -3.08536         3.57762        -1.79126
H          -2.57618         1.19856        -1.39113

