%nprocshared=8
%mem=1600MB
#p opt freq b3lyp/cc-pvdz

 Mol01.log

0  1
O           1.13939        -1.47844        -0.08955
C           1.30206        -0.43351        -0.70012
C           2.66132        -0.08527        -1.29486
N           3.63741        -1.10107        -1.04812
N           3.95493        -1.98487        -2.03612
N           4.80009        -2.82282        -1.59956
C           5.07706        -2.53078        -0.27336
C           5.93530        -3.15154         0.63306
C           6.00484        -2.62140         1.89811
C           5.23272        -1.49450         2.25850
C           4.38213        -0.87867         1.37166
C           4.31987        -1.42318         0.08642
N           0.29587         0.47857        -0.88376
C           0.50811         1.78001        -1.51987
C           1.06356         2.85157        -0.61080
C           1.46252         4.14392        -1.13457
C           1.91753         4.99338        -0.20215
S           1.89290         4.26111         1.42776
C           1.23057         2.75689         0.71878
C          -1.03871         0.15239        -0.45620
C          -2.05116         0.03646        -1.39487
C          -3.35682        -0.24330        -1.02116
C          -3.65723        -0.43251         0.32441
C          -2.63474        -0.33616         1.26697
C          -1.34051        -0.04461         0.88290
N          -4.94719        -0.73445         0.80511
C          -6.11959        -0.81318         0.11476
O          -6.20812        -0.61318        -1.09654
C          -7.30709        -1.16044         0.92996
C          -8.38981        -2.00176         0.27981
C          -8.64095        -0.55656         0.53148
H           2.57788         0.00467        -2.36802
H           3.01074         0.86049        -0.90323
H           6.51015        -4.00663         0.33981
H           6.64997        -3.06456         2.63072
H           5.31285        -1.11305         3.25803
H           3.79327        -0.03109         1.65948
H           1.15337         1.67491        -2.38303
H          -0.44726         2.11000        -1.90164
H           1.39915         4.39760        -2.17411
H           2.26956         5.99159        -0.33243
H           1.00204         1.93277         1.35391
H          -1.82462         0.15384        -2.43722
H          -4.12488        -0.32145        -1.75662
H          -2.85074        -0.49122         2.30760
H          -0.56622         0.00118         1.62051
H          -4.99764        -0.91419         1.77953
H          -7.13360        -1.31342         1.97728
H          -8.21144        -2.30765        -0.73112
H          -8.87717        -2.73149         0.89614
H          -9.30490        -0.27241         1.32418
H          -8.63068         0.10452        -0.31129

