%nprocshared=8
%mem=1600MB
#p opt freq b3lyp/cc-pvdz

 Mol07.log

0  1
O          -3.35118        -2.42821         0.20330
C          -2.23671        -1.91099         0.17091
C          -1.13473        -2.56024         0.99614
N           0.07987        -2.82576         0.26376
N           0.02349        -3.40763        -0.96412
N           1.20147        -3.60341        -1.39786
C           2.10614        -3.16287        -0.44689
C           1.38407        -2.66155         0.62943
C           2.02250        -2.13896         1.75857
C           3.39670        -2.14447         1.74531
C           4.13528        -2.65243         0.65245
C           3.50096        -3.16557        -0.45211
N          -1.99027        -0.77643        -0.53081
C          -3.08740        -0.23553        -1.35993
C          -3.97989         0.73022        -0.62103
C          -5.03567         0.35588         0.12431
S          -5.86850         1.75242         0.86684
C          -4.68772         2.84818         0.08789
C          -3.78778         2.16692        -0.63743
C          -0.79144        -0.00111        -0.42324
C          -0.58573         0.82452         0.67325
C           0.56215         1.59878         0.75962
C           1.51926         1.57463        -0.25216
C           1.28974         0.75462        -1.35837
C           0.14948        -0.02491        -1.44469
C           2.75540         2.39719        -0.15640
C           2.69603         3.73445         0.23467
C           3.84929         4.49916         0.32388
C           5.08252         3.93962         0.02296
C           5.15416         2.60989        -0.36636
C           4.00104         1.84494        -0.45472
H          -1.55617        -3.48062         1.36802
H          -0.88616        -1.92647         1.83472
H           1.47707        -1.74775         2.59348
H           3.92943        -1.75169         2.58939
H           5.20627        -2.63661         0.69773
H           4.04064        -3.55927        -1.28970
H          -2.63291         0.25390        -2.20940
H          -3.66161        -1.07289        -1.71924
H          -5.37884        -0.63726         0.30701
H          -4.76564         3.90228         0.22942
H          -2.99778         2.64090        -1.18459
H          -1.32571         0.86784         1.44924
H           0.71805         2.21471         1.62386
H           2.00316         0.73267        -2.15861
H          -0.00896        -0.66316        -2.29161
H           1.74476         4.18237         0.44971
H           3.78351         5.52861         0.61957
H           5.97488         4.53139         0.09061
H           6.10467         2.16725        -0.59480
H           4.06883         0.81098        -0.73390

