%nprocshared=8
%mem=1600MB
#p opt freq b3lyp/cc-pvdz

 Mol18.log

0  1
C          -8.24776        -2.44912         0.80885
N          -7.20042        -1.49589         0.51712
C          -5.88437        -1.72002         0.31852
C          -5.28441        -0.50241         0.10216
C          -6.35274         0.42601         0.19386
N          -7.49248        -0.18154         0.44039
C          -3.86662        -0.22381        -0.16169
C          -3.07056        -1.12500        -0.87079
C          -1.73431        -0.86882        -1.11475
C          -1.15137         0.30463        -0.65176
C          -1.93013         1.21196         0.05187
C          -3.27035         0.95013         0.29091
N           0.22444         0.60223        -0.94569
C           0.52890         1.91060        -1.52909
C           1.11957         2.91960        -0.57128
C           1.61915         4.19708        -1.04144
C           2.10148         4.98451        -0.06885
S           1.98097         4.20541         1.53479
C           1.24088         2.77219         0.75969
C           1.19574        -0.33302        -0.69392
O           0.96693        -1.38361        -0.11447
C           2.60602        -0.01305        -1.17667
N           3.50979        -1.10055        -0.96037
N           3.82866        -1.92443        -1.99871
N           4.60515        -2.83968        -1.59020
C           4.83080        -2.66411        -0.23430
C           5.60874        -3.39934         0.65937
C           5.64156        -2.97174         1.96379
C           4.91070        -1.83469         2.37587
C           4.13957        -1.10646         1.50209
C           4.11571        -1.54601         0.17591
H          -8.62754        -2.29483         1.80833
H          -9.05418        -2.32983         0.10166
H          -7.84718        -3.44820         0.72900
H          -5.46718        -2.70022         0.36248
H          -6.32151         1.48428         0.07029
H          -3.50523        -2.02630        -1.25733
H          -1.14479        -1.58169        -1.65229
H          -1.49697         2.11808         0.42601
H          -3.84633         1.65639         0.85672
H           1.19482         1.79497        -2.37610
H          -0.39623         2.29861        -1.93162
H           1.60403         4.48620        -2.07347
H           2.52186         5.96073        -0.15637
H           0.94436         1.94110         1.35936
H           2.59913         0.17013        -2.24069
H           2.97779         0.87536        -0.68517
H           6.15217        -4.26053         0.32671
H           6.22448        -3.50476         2.68861
H           4.95750        -1.53730         3.40553
H           3.57695        -0.25561         1.82932

