%nprocshared=8
%mem=1600MB
#p opt freq b3lyp/cc-pvdz

 Mol17.log

0  1
S          -1.48913         5.35109        -0.14296
C           0.25307         4.98324        -0.09770
C          -1.84805         3.59869        -0.17106
C           0.48609         3.66416        -0.10560
C          -0.72168         2.85630        -0.14685
N          -0.63931         1.43131        -0.15844
C           3.21871        -0.29998         0.14330
C           2.65123        -0.03569        -1.10536
C           2.47636         0.00416         1.28457
C           1.39194         0.53237        -1.20279
C           1.21555         0.57168         1.18812
C           0.66860         0.83427        -0.05770
C          -1.75680         0.63974        -0.25408
C          -1.53358        -0.86840        -0.25000
O          -2.88964         1.09288        -0.31345
C          -3.82983        -1.82377         0.28656
N          -2.74399        -1.58965        -0.50310
C          -4.68385        -2.56712        -0.51832
N          -2.94587        -2.14912        -1.73030
N          -4.07385        -2.72738        -1.75216
C          -4.16790        -1.49089         1.60093
C          -5.38270        -1.94403         2.05630
C          -5.91660        -3.02019        -0.05007
C          -6.25334        -2.70371         1.24295
C           7.14166        -1.95987         0.55883
N           6.29000        -2.39804        -0.41359
C           6.75833        -0.97788         1.39254
C           5.01935        -1.91336        -0.64079
C           5.44854        -0.42923         1.22818
C           4.58598        -0.86233         0.27412
O           4.35276        -2.37954        -1.57035
H           0.97038         5.77160        -0.07248
H          -2.85393         3.26631        -0.21155
H           1.47060         3.25196        -0.08724
H           3.18517        -0.29142        -1.99494
H           2.87312        -0.22185         2.25496
H           0.96934         0.74444        -2.16579
H           0.65827         0.81007         2.07352
H          -0.83141        -1.15437        -1.01605
H          -1.11651        -1.17186         0.70165
H          -3.52742        -0.89458         2.21857
H          -5.68711        -1.70886         3.05782
H          -6.56363        -3.59016        -0.68581
H          -7.19131        -3.02845         1.64809
H           8.09881        -2.43548         0.60078
H           6.57148        -3.12235        -1.03540
H           7.41235        -0.61346         2.15558
H           5.14765         0.36561         1.88272

