%nprocshared=8
%mem=1600MB
#p opt freq b3lyp/cc-pvdz

 Mol10.log

0  1
N           6.83492        -1.10049         0.76393
C           5.78487        -1.93714         0.57846
O           5.92098        -3.15489         0.67844
C           4.46807        -1.33364         0.23234
C           3.50798        -2.15499        -0.35068
C           2.26789        -1.65933        -0.70442
C           1.95490        -0.32560        -0.45761
C           2.90018         0.49459         0.14640
C           4.14749        -0.00647         0.48317
N           0.69367         0.22098        -0.86529
C           0.69799         1.52055        -1.54315
C           0.29457         2.69441        -0.68148
C           0.09074         4.01082        -1.25392
C          -0.25471         4.94628        -0.35702
S          -0.36175         4.27297         1.29464
C           0.09341         2.66814         0.64793
C          -0.47239        -0.46677        -0.61955
O          -0.50676        -1.48411         0.05255
C          -1.75036         0.09902        -1.22788
N          -2.87812        -0.74804        -0.99516
N          -3.30904        -1.57786        -1.98889
N          -4.28675        -2.26669        -1.57021
C          -4.54599        -1.92439        -0.25242
C          -5.51407        -2.39493         0.63374
C          -5.52789        -1.85323         1.89551
C          -4.59335        -0.86307         2.27286
C          -3.63431        -0.39601         1.40620
C          -3.63036        -0.94969         0.12347
H           6.80127        -0.13183         0.57077
H           7.70652        -1.50236         1.01553
H           3.74865        -3.18362        -0.52541
H           1.54235        -2.30753        -1.14618
H           2.66563         1.51544         0.36980
H           4.84270         0.64605         0.97447
H           1.69811         1.67848        -1.92165
H           0.05646         1.48297        -2.41481
H           0.20485         4.21777        -2.29941
H          -0.45999         5.97921        -0.52522
H           0.18535         1.83768         1.31154
H          -1.94656         1.08719        -0.83509
H          -1.64439         0.17762        -2.29961
H          -6.21063        -3.14926         0.32823
H          -6.25223        -2.18377         2.61330
H          -4.63326        -0.47020         3.27027
H          -2.92110         0.34389         1.70882

