%nprocshared=8
%mem=1600MB
#p opt freq b3lyp/cc-pvdz

 Mol22.log

0  1
C           1.69596         5.15010        -0.12377
C           0.39486         4.61369         0.49228
C           0.15598         5.24700         1.87007
C           0.38518         3.07766         0.60681
C           0.39797         2.35081        -0.74204
N           0.26209         0.89053        -0.60550
C           1.30918         0.01456        -0.58790
O           1.16021        -1.18600        -0.40794
C           2.70254         0.59717        -0.78634
N           3.72068        -0.40850        -0.82028
N           4.34506        -0.68306        -2.00175
N           5.20788        -1.59432        -1.82334
C           5.18893        -1.97513        -0.49141
C           5.94951        -2.92412         0.19102
C           5.70734        -3.07662         1.53372
C           4.72069        -2.30430         2.18731
C           3.96404        -1.37084         1.52101
C           4.22208        -1.21620         0.15627
C          -1.07000         0.37748        -0.44465
C          -1.51263        -0.08009         0.78715
C          -2.80835        -0.54597         0.93204
C          -3.68988        -0.56230        -0.14794
C          -3.23155        -0.10324        -1.38145
C          -1.93350         0.35766        -1.52935
C          -5.07860        -1.06227         0.01043
C          -5.36104        -2.23681         0.70506
C          -6.67358        -2.66440         0.82549
C          -7.67727        -1.90718         0.24422
N          -7.41779        -0.78288        -0.42022
C          -6.15888        -0.37059        -0.53384
H           2.55475         4.85059         0.47018
H           1.84944         4.79757        -1.13732
H           1.68311         6.23355        -0.15981
H          -0.43101         4.90500        -0.15494
H           0.95234         4.98327         2.55964
H           0.12337         6.32843         1.79979
H          -0.78206         4.91288         2.29950
H           1.23663         2.75692         1.20359
H          -0.50431         2.77100         1.14696
H          -0.42956         2.69710        -1.34664
H           1.29513         2.57753        -1.29513
H           2.76156         1.11166        -1.73320
H           2.91836         1.31276        -0.00218
H           6.68830        -3.50266        -0.32579
H           6.26570        -3.79420         2.10171
H           4.55439        -2.46129         3.23548
H           3.19995        -0.81148         2.02103
H          -0.84273        -0.08167         1.62355
H          -3.14093        -0.88182         1.89502
H          -3.87962        -0.13394        -2.23555
H          -1.58482         0.68281        -2.49039
H          -4.56285        -2.81641         1.12663
H          -6.91155        -3.56822         1.34956
H          -8.70518        -2.19890         0.30684
H          -6.00956         0.54882        -1.06246

