%nprocshared=8
%mem=1600MB
#p opt freq b3lyp/cc-pvdz

 Mol23.log

0  1
O           1.32168        -0.76221        -0.44891
C           1.41971         0.45491        -0.51674
C           2.78838         1.11178        -0.64282
N           3.84888         0.15788        -0.76368
N           4.49744         0.03352        -1.95762
N           5.39848        -0.85256        -1.86012
C           5.38303        -1.36823        -0.57433
C           6.17884        -2.34775         0.01896
C           5.93022        -2.64750         1.33540
C           4.90280        -1.99056         2.04953
C           4.11138        -1.02806         1.47071
C           4.37619        -0.72290         0.13289
N           0.33481         1.28263        -0.46587
C           0.40880         2.75301        -0.47327
C           0.39588         3.37029         0.90569
C          -0.01781         4.81166         1.06609
C          -0.90279         3.71347         1.58847
C          -0.97246         0.69600        -0.35886
C          -1.41454         0.15865         0.84006
C          -2.68597        -0.38073         0.93351
C          -3.54295        -0.39282        -0.16664
C          -3.08505         0.14740        -1.36671
C          -1.81038         0.68246        -1.46298
C          -4.90573        -0.97234        -0.06322
C          -5.13860        -2.19166         0.56995
C          -6.42836        -2.69326         0.64053
C          -7.45938        -1.96356         0.07205
N          -7.24738        -0.79702        -0.53383
C          -6.01044        -0.31389        -0.59959
H           2.83284         1.71899        -1.53380
H           2.96812         1.75569         0.20986
H           6.94829        -2.83719        -0.54319
H           6.51470        -3.39421         1.83549
H           4.73280        -2.26159         3.07354
H           3.31677        -0.55815         2.01330
H           1.29344         3.06646        -1.00806
H          -0.43510         3.11700        -1.04466
H           1.19186         3.03192         1.54483
H           0.51781         5.42092         1.76747
H          -0.34022         5.34647         0.19223
H          -1.81774         3.50898         1.06711
H          -0.97197         3.57281         2.64956
H          -0.76463         0.15997         1.69187
H          -3.02058        -0.77783         1.87220
H          -3.71277         0.12286        -2.23607
H          -1.45921         1.07053        -2.39955
H          -4.31905        -2.74748         0.98245
H          -6.62789        -3.63217         1.11679
H          -8.47114        -2.31185         0.09767
H          -5.90014         0.63596        -1.08194

