%nprocshared=8
%mem=1600MB
#p opt freq b3lyp/cc-pvdz

 Mol27.log

0  1
O           1.20941        -1.34781        -0.33310
C           1.33896        -0.24894        -0.84911
C           2.71726         0.28833        -1.20594
N           3.74988        -0.67422        -0.96748
N           4.29311        -1.35565        -2.01408
N           5.16483        -2.17066        -1.58317
C           5.22981        -2.06768        -0.20311
C           6.02634        -2.74144         0.72260
C           5.86530        -2.41452         2.04631
C           4.92518        -1.43772         2.44652
C           4.13455        -0.77160         1.54161
C           4.30936        -1.10709         0.19626
N           0.26058         0.55258        -1.12240
C           0.35236         1.91816        -1.64275
C           0.32745         2.95896        -0.56293
C          -0.59124         3.91836        -0.38569
S          -0.19084         4.92637         1.03790
C           1.25034         3.88288         1.25147
N           1.36393         2.95705         0.37863
C          -1.05515         0.08258        -0.78731
C          -1.87125        -0.43988        -1.77870
C          -3.15460        -0.86257        -1.47389
C          -3.64556        -0.77360        -0.17204
C          -2.81112        -0.25207         0.81578
C          -1.52779         0.17152         0.51239
C          -5.02033        -1.22821         0.15571
C          -6.10937        -0.92147        -0.65742
C          -7.37469        -1.36646        -0.30940
C          -7.52372        -2.10791         0.85084
N          -6.48929        -2.40843         1.63342
C          -5.27419        -1.98594         1.29786
H           2.76657         0.53037        -2.25701
H           2.90857         1.18697        -0.63576
H           6.72944        -3.48198         0.39863
H           6.45352        -2.90642         2.79565
H           4.82423        -1.21818         3.49186
H           3.41062        -0.04656         1.85434
H           1.25514         2.03100        -2.22320
H          -0.47594         2.07548        -2.31770
H          -1.46720         4.11049        -0.96100
H           1.93761         4.05124         2.04862
H          -1.49343        -0.53624        -2.77819
H          -3.76442        -1.29148        -2.24513
H          -3.16993        -0.16194         1.82245
H          -0.89172         0.56303         1.28100
H          -5.97035        -0.32870        -1.54074
H          -8.22569        -1.13725        -0.91894
H          -8.48100        -2.47001         1.16406
H          -4.47660        -2.27607         1.95073

