%nprocshared=8
%mem=1600MB
#p opt freq b3lyp/cc-pvdz

 Mol34.log

0  1
Cl         -3.00446         5.96807        -0.42544
C          -2.24696         4.43441         0.12646
C          -2.28300         4.09946         1.46775
N          -1.73323         2.97210         1.89911
C          -1.13424         2.14949         1.03632
C          -1.05840         2.41640        -0.32320
C          -1.63933         3.59781        -0.78104
C          -0.36779         1.49891        -1.31842
N           0.02643         0.18850        -0.80074
C          -0.87131        -0.83699        -0.62040
O          -0.55554        -1.90467        -0.12241
C          -2.30614        -0.58895        -1.07089
N          -3.12377        -1.75277        -0.93313
N          -3.39926        -2.51141        -2.03375
N          -4.10156        -3.50954        -1.69348
C          -4.31877        -3.46132        -0.32536
C          -5.02874        -4.32144         0.51135
C          -5.07250        -4.00495         1.84685
C          -4.41866        -2.85557         2.34453
C          -3.71440        -2.00424         1.52700
C          -3.67939        -2.33159         0.16915
C           1.42260        -0.02994        -0.53164
C           2.13310         0.87101         0.24830
C           3.49174         0.69501         0.46097
C           4.16845        -0.39042        -0.08679
C           3.44037        -1.29232        -0.86306
C           2.08796        -1.11385        -1.09109
C           5.62127        -0.58310         0.14801
C           6.18831        -0.42605         1.41111
C           7.55035        -0.61590         1.58101
C           8.31698        -0.96280         0.48081
N           7.78479        -1.11401        -0.73030
C           6.47854        -0.92951        -0.89465
H          -2.75186         4.73141         2.19063
H          -0.70896         1.26142         1.45359
H          -1.61740         3.85731        -1.82164
H          -1.00287         1.38015        -2.18780
H           0.53379         1.97755        -1.67290
H          -2.73963         0.22952        -0.51213
H          -2.32465        -0.32550        -2.11800
H          -5.51398        -5.18975         0.11371
H          -5.60484        -4.63610         2.53050
H          -4.47078        -2.64726         3.39552
H          -3.20871        -1.14530         1.91989
H           1.63933         1.71337         0.69022
H           4.02601         1.41703         1.04754
H           3.92962        -2.15031        -1.28079
H           1.54787        -1.82879        -1.67546
H           5.56870        -0.17855         2.25116
H           8.00489        -0.50657         2.54516
H           9.37188        -1.12405         0.56274
H           6.10762        -1.04682        -1.89247

