%nprocshared=8
%mem=1600MB
#p opt freq b3lyp/cc-pvdz

 Mol36.log

0  1
Cl         -2.78009         5.93301        -0.47784
C          -2.00726         4.42468         0.15176
C          -2.04959         4.16392         1.50726
C          -1.45498         3.00211         1.97169
C          -0.83082         2.12565         1.09253
C          -0.79438         2.40125        -0.26898
C          -1.39737         3.56732        -0.73728
C          -0.10468         1.49453        -1.27912
N           0.26731         0.16721        -0.78644
C          -0.65690        -0.83237        -0.60864
O          -0.37802        -1.90739        -0.10155
C          -2.07997        -0.54859        -1.07550
N          -2.92620        -1.69508        -0.95417
N          -3.21213        -2.43745        -2.06211
N          -3.94295        -3.42033        -1.73581
C          -4.16985        -3.37680        -0.36939
C          -4.90836        -4.22431         0.45551
C          -4.95444        -3.91688         1.79301
C          -4.27453        -2.78873         2.30444
C          -3.54227        -1.95027         1.49860
C          -3.50526        -2.26769         0.13843
C           1.65661        -0.08025        -0.51080
C           2.39868         0.83686         0.22034
C           3.75045         0.62783         0.44520
C           4.39727        -0.49954        -0.05276
C           3.63784        -1.41417        -0.78382
C           2.28993        -1.21079        -1.01392
C           5.83029        -0.72522         0.17961
C           6.83355         0.20606         0.26654
N           7.98199        -0.47043         0.48744
N           7.78143        -1.80361         0.55101
C           6.49341        -1.97092         0.36559
H          -2.53292         4.84538         2.17625
H          -1.47594         2.77955         3.02053
H          -0.37206         1.23359         1.47065
H          -1.39114         3.80350        -1.78349
H          -0.73162         1.40238        -2.15732
H           0.80648         1.96778        -1.61511
H          -2.50067         0.27691        -0.51764
H          -2.07980        -0.27933        -2.12108
H          -5.41279        -5.07682         0.04764
H          -5.50820        -4.53919         2.46776
H          -4.32901        -2.58788         3.35686
H          -3.01547        -1.10829         1.90006
H           1.92993         1.70988         0.62899
H           4.29563         1.33751         1.03706
H           4.10872        -2.28499        -1.19625
H           1.73132        -1.93376        -1.56976
H           6.80920         1.26717         0.16920
H           6.06697        -2.94726         0.38563
H           8.89652        -0.11239         0.59437

