%nprocshared=8
%mem=1600MB
#p opt freq b3lyp/cc-pvdz

 Mol31.log

0  1
F          -4.15244         4.49224        -1.04995
C          -2.92043         4.00410        -0.70221
C          -2.03132         4.85733        -0.09099
C          -0.79980         4.33457         0.25202
C          -0.46106         3.02232        -0.00041
C          -1.38561         2.18247        -0.61884
C          -2.63368         2.68314        -0.97243
C          -1.03624         0.74442        -0.96015
N          -0.39725        -0.01447         0.12840
C          -1.09865        -0.54313         1.17206
O          -0.56039        -1.14866         2.09377
C          -2.61565        -0.40699         1.19730
N          -3.25503        -1.35357         0.31170
N          -3.99312        -0.91895        -0.75140
N          -4.51979        -1.91326        -1.33784
C          -4.15727        -3.07187        -0.67142
C          -4.48816        -4.40480        -0.91964
C          -3.97295        -5.34668        -0.06459
C          -3.14034        -4.97557         1.01676
C          -2.80603        -3.66669         1.26963
C          -3.34100        -2.71458         0.39503
C           1.01991        -0.24994         0.05208
C           1.53880        -0.97090        -1.01364
C           2.90427        -1.17952        -1.11763
C           3.77944        -0.68417        -0.15308
C           3.24254         0.02427         0.92109
C           1.87887         0.24084         1.02461
C           5.24216        -0.91121        -0.26229
C           5.92267        -0.74980        -1.46738
C           7.28925        -0.97277        -1.52021
C           7.94746        -1.35035        -0.36154
N           7.30587        -1.50932         0.79429
C           5.99416        -1.29908         0.84531
Cl          0.40454         5.41248         1.05355
H          -2.29332         5.87479         0.10520
H           0.50705         2.65990         0.27368
H          -3.37455         2.06399        -1.43794
H          -1.92308         0.23309        -1.29690
H          -0.34256         0.74242        -1.78737
H          -2.91730        -0.60315         2.21458
H          -2.95385         0.57519         0.91586
H          -5.11959        -4.66536        -1.74478
H          -4.19841        -6.38419        -0.21238
H          -2.75476        -5.74499         1.65685
H          -2.15870        -3.39074         2.07684
H           0.87757        -1.38576        -1.74980
H           3.28552        -1.75738        -1.93701
H           3.89381         0.42609         1.67236
H           1.48285         0.77370         1.86493
H           5.39294        -0.43630        -2.34607
H           7.83209        -0.84836        -2.43565
H           9.00258        -1.52961        -0.35093
H           5.52669        -1.46176         1.79492

