%nprocshared=8
%mem=1600MB
#p opt freq b3lyp/cc-pvdz

 Mol38.log

0  1
C           1.63760        -3.11947         1.71293
O           1.67104        -1.68645         1.90924
C           2.28233        -0.88180         0.97879
C           3.60721        -1.05259         0.62072
C           4.21905        -0.18995        -0.28853
C           3.46567         0.85123        -0.82614
C           2.13974         1.02276        -0.46203
C           1.53645         0.16158         0.43715
N           0.17627         0.33646         0.84935
C          -0.09963         1.37630         1.84072
C          -0.94330         2.54277         1.34920
C          -1.45032         3.44381         2.28377
C          -2.19575         4.53826         1.88030
C          -2.45731         4.75273         0.53277
C          -1.95560         3.85166        -0.37959
C          -1.20525         2.75543         0.00180
Cl         -2.28863         4.10434        -2.14096
C          -0.72083        -0.64510         0.52227
O          -0.46023        -1.52463        -0.28464
C          -2.07693        -0.60162         1.21128
N          -2.93064        -1.66888         0.78928
N          -3.05020        -2.78327         1.56413
N          -3.80376        -3.62315         0.98530
C          -4.21493        -3.09473        -0.22805
C          -5.04438        -3.62492        -1.21556
C          -5.27457        -2.85046        -2.32596
C          -4.68842        -1.57136        -2.45614
C          -3.86830        -1.04222        -1.48849
C          -3.64302        -1.83573        -0.36046
C           5.62822        -0.37916        -0.65780
C           6.34238        -1.60568        -0.76255
N           7.58870        -1.40381        -1.11859
N           7.71168        -0.06564        -1.24692
C           6.55567         0.57894        -0.97958
H           0.95864        -3.49538         2.45828
H           1.26795        -3.34659         0.72550
H           2.61859        -3.54638         1.86403
H           4.17353        -1.83852         1.07864
H           3.90238         1.50961        -1.55092
H           1.56769         1.81933        -0.89429
H          -0.56178         0.94655         2.72156
H           0.85955         1.75371         2.16455
H          -1.26125         3.28870         3.32978
H          -2.57951         5.22453         2.60944
H          -3.03595         5.59246         0.20786
H          -0.83465         2.07819        -0.73888
H          -1.93981        -0.71782         2.27659
H          -2.56490         0.34712         1.03705
H          -5.47620        -4.59833        -1.09867
H          -5.90434        -3.21523        -3.11314
H          -4.88809        -1.00017        -3.34193
H          -3.41911        -0.07651        -1.60566
H           5.97829        -2.59550        -0.61073
H           6.47580         1.64109        -1.01552
H           8.58430         0.31798        -1.50671

