%nprocshared=8
%mem=1600MB
#p opt freq b3lyp/cc-pvdz

 Mol41.log

0  1
C          -4.21044         1.12997         0.47334
C          -5.28473         1.89230         0.03198
C          -4.37040         0.12562         1.43202
C          -6.57266         1.69392         0.52909
C          -5.64111        -0.06042         1.92017
C          -6.73686         0.71478         1.47724
N          -3.14336         1.62351        -0.21559
N          -4.81015         2.79237        -0.90809
N          -3.56076         2.62215        -1.04466
C          -1.75963         1.25320        -0.20299
C          -1.50362        -0.06391        -0.91897
N          -0.20709        -0.39101        -1.16372
O          -2.43384        -0.79987        -1.23638
C           0.08038        -1.64843        -1.88282
C           1.82124        -4.31376         0.16664
C           0.77298        -5.00587         0.73268
C           1.61941        -3.23857        -0.67574
C          -0.52239        -4.59876         0.43906
C           0.32205        -2.82868        -0.96552
C          -0.74891        -3.52109        -0.40214
Cl          3.51979        -4.82992         0.53549
C           2.56004         1.00213         0.89405
C           3.12045         1.93932         0.02807
C           1.46591         0.24359         0.51176
C           2.55330         2.09834        -1.23655
C           0.90581         0.41236        -0.74761
C           1.45972         1.34174        -1.61990
C           4.27993         2.74885         0.41121
C           5.00887         2.74987         1.56217
N           4.80795         3.69535        -0.45675
N           5.98548         3.70528         1.38999
C           5.81633         4.24438         0.15227
H          -3.55233        -0.48582         1.75419
H          -7.38987         2.28943         0.17520
H          -5.81325        -0.82288         2.65509
H          -7.70808         0.52415         1.88931
H          -1.21346         2.05419        -0.67435
H          -1.40759         1.17765         0.81856
H          -0.75824        -1.84867        -2.52986
H           0.95076        -1.47118        -2.49777
H           0.95812        -5.83937         1.37864
H           2.46062        -2.72824        -1.10018
H          -1.35166        -5.12951         0.86453
H          -1.74990        -3.20942        -0.62615
H           2.97542         0.85385         1.87170
H           1.05329        -0.48520         1.18176
H           2.97794         2.81700        -1.90630
H           1.03079         1.46993        -2.59537
H           4.93023         2.17883         2.45664
H           6.68304         3.95194         2.04740
H           6.44008         5.01210        -0.24071

